CMD:
./solvers/bin/cadical --plain --no-reduce -t 1600 ./data/cnfs//texasparsesysp2/texasparsesysp2.50.cnf

c --- [ banner ] -------------------------------------------------------------
c 
c CaDiCaL SAT Solver
c Copyright (c) 2016-2024
c A. Biere, M. Fleury, N. Froleyks, K. Fazekas, F. Pollitt, T. Faller
c JKU Linz, University of Freiburg, TU Wien
c 
c Version 2.1.3 5296d3d2a9bf48c154ab2acb5e44625776d821bf
c g++ (Gentoo 12.3.1_p20230526 p2) 12.3.1 20230526 -Wall -Wextra -O3 -DNDEBUG
c Sat Aug 9 07:26:21 PDT 2025 Linux cedar2.int.cedar.computecanada.ca 5.14.0-362.24.2.el9_3.x86_64 x86_64
c 
c --- [ limit ] --------------------------------------------------------------
c 
c setting time limit to 1600 seconds real time (due to '-t 1600')
c 
c --- [ parsing input ] ------------------------------------------------------
c 
c reading DIMACS file from './data/cnfs//texasparsesysp2/texasparsesysp2.50.cnf'
c opening file to read './data/cnfs//texasparsesysp2/texasparsesysp2.50.cnf'
c found 'p cnf 605835 1815351' header
c parsed 1815351 clauses in 0.27 seconds process time
c 
c --- [ options ] ------------------------------------------------------------
c 
c   --compact=false                (different from default 'true')
c   --decompose=false              (different from default 'true')
c   --deduplicate=false            (different from default 'true')
c   --elim=false                   (different from default 'true')
c   --probe=false                  (different from default 'true')
c   --reduce=false                 (different from default 'true')
c   --subsume=false                (different from default 'true')
c   --ternary=false                (different from default 'true')
c   --transred=false               (different from default 'true')
c   --vivify=false                 (different from default 'true')
c 
c --- [ solving ] ------------------------------------------------------------
c 
c time measured in process time since initialization
c 
c  seconds   reductions  redundant   irredundant
c          MB    restarts       trail        variables
c           level   conflicts       glue           remaining
c 
c *  0.27 275  0 0   0    0    0  0% 0 1746740 566145 93%
c {  0.27 275  0 0   0    0    0  0% 0 1746740 566145 93%
c i  0.35 280 71 0   0   17   15 12% 1 1746740 564730 93%
c i  0.35 280 67 0   0   18   15 12% 1 1746740 564724 93%
c }  0.35 280 63 0   0   20   15 11% 1 1746740 564068 93%
c 0  0.35 280 63 0   0   20   15 11% 1 1746740 564068 93%
c 
c --- [ result ] -------------------------------------------------------------
c 
s UNSATISFIABLE
c 
c --- [ run-time profiling ] -------------------------------------------------
c 
c process time taken by individual solving procedures
c (percentage relative to process time for solving)
c 
c         0.27  345.11% parse
c         0.08   99.84% search
c         0.07   95.61% unstable
c         0.00    4.19% lucky
c         0.00    0.00% simplify
c   =================================
c         0.08   22.43% solve
c 
c last line shows process time for solving
c (percentage relative to total process time)
c 
c --- [ statistics ] ---------------------------------------------------------
c 
c chronological:                11        55.00 %  of conflicts
c conflicts:                    20       256.51    per second
c decisions:                   367      4707.00    per second
c fixed:                     41767         6.89 %  of all variables
c learned:                      18        90.00 %  per conflict
c learned_lits:                 46       100.00 %  learned literals
c minimized:                     0         0.00 %  learned literals
c shrunken:                      5        10.87 %  learned literals
c minishrunken:                  0         0.00 %  learned literals
c otfs:                          1         5.00 %  of conflict
c propagations:             559338         7.17 M  per second
c strengthened:                  1         0.00 %  of all clauses
c 
c seconds are measured in process time for solving
c 
c --- [ resources ] ----------------------------------------------------------
c 
c total process time since initialization:         0.35    seconds
c total real time since initialization:            0.37    seconds
c maximum resident set size of process:          279.20    MB
c 
c --- [ shutting down ] ------------------------------------------------------
c 
c exit 20
